% --- Dimensiones ---
num_buses = 10;
num_stations = 15;

% --- Parámetros de Energía ---
% Escalados ×10 para evitar floats
Cmax = 1000;   % 100.0 kWh capacidad total
Cmin = 200;    % 20.0 kWh reserva mínima
alpha = 100;   % 10 kWh por minuto de carga

% --- Parámetros de Tiempo ---
mu = 30;       % retraso máximo permitido (5 min)
SM = 10;       % margen de seguridad entre cargas (1 min)
psi = 10;      % tiempo mínimo de carga (1 min)
beta = 100;    % tiempo máximo de carga (10 min)
M = 10000;     % constante grande

% --- Estructura de Rutas ---
max_stops = 15;
num_stops = [15,15,15,15,15,15,15,15,15,15];

% Mapeo de paradas a estaciones (1 a 15)
st_bi = array2d(1..10, 1..15, [
  1,2,3,4,5,6,7,8,9,10,11,12,13,14,15,   % Bus 1: Ruta lineal
  15,14,13,12,11,10,9,8,7,6,5,4,3,2,1,   % Bus 2: Ruta inversa
  1,3,5,7,9,11,13,15,2,4,6,8,10,12,14,   % Bus 3: estaciones alternas
  2,4,6,8,10,12,14,1,3,5,7,9,11,13,15,   % Bus 4: patrón inverso
  1,5,9,13,2,6,10,14,3,7,11,15,4,8,12,   % Bus 5: saltos largos
  12,8,4,15,11,7,3,14,10,6,2,13,9,5,1,   % Bus 6: patrón inverso del 5
  1,4,7,10,13,2,5,8,11,14,3,6,9,12,15,   % Bus 7: recorrido alternado
  15,12,9,6,3,14,11,8,5,2,13,10,7,4,1,   % Bus 8: recorrido alternado inverso
  5,6,7,8,9,10,11,12,13,14,15,4,3,2,1,   % Bus 9: congestión central
  3,6,9,12,15,2,5,8,11,14,1,4,7,10,13    % Bus 10: ruta mixta urbana
]);

% Energía consumida entre paradas (kWh)
% Ajustada para asegurar factibilidad del modelo
% (Valores escalados ×10)
D = array2d(1..10, 1..15, [
  0,40,40,50,50,50,40,40,40,50,50,40,40,40,50,   % Bus 1 (sum=620)
  0,40,40,50,50,50,40,40,40,50,50,40,40,40,50,   % Bus 2 (sum=620)
  0,45,45,45,45,45,45,45,45,45,45,45,45,45,45,   % Bus 3 (sum=630)
  0,45,45,45,45,45,45,45,45,45,45,45,45,45,45,   % Bus 4 (sum=630)
  0,60,60,60,60,50,50,50,50,40,40,40,40,40,40,   % Bus 5 (sum=680)
  0,60,60,60,60,50,50,50,50,40,40,40,40,40,40,   % Bus 6 (sum=680)
  0,50,50,50,50,50,50,50,50,50,50,50,50,50,50,   % Bus 7 (sum=700)
  0,50,50,50,50,50,50,50,50,50,50,50,50,50,50,   % Bus 8 (sum=700)
  0,35,35,35,35,35,35,35,35,35,35,35,35,35,35,   % Bus 9 (sum=490)
  0,55,55,55,55,55,55,55,55,55,55,55,55,55,55    % Bus10 (sum=770)
]);

% Tiempo de viaje entre paradas (minutos)
% (Valores escalados ×10)
T = array2d(1..10, 1..15, [
  0,100,100,120,120,120,100,100,100,120,120,100,100,100,120,
  0,100,100,120,120,120,100,100,100,120,120,100,100,100,120,
  0,150,150,150,150,150,150,150,150,150,150,150,150,150,150,
  0,150,150,150,150,150,150,150,150,150,150,150,150,150,150,
  0,200,200,200,200,150,150,150,150,120,120,120,120,120,120,
  0,200,200,200,200,150,150,150,150,120,120,120,120,120,120,
  0,160,160,160,160,160,160,160,160,160,160,160,160,160,160,
  0,160,160,160,160,160,160,160,160,160,160,160,160,160,160,
  0,140,140,140,140,140,140,140,140,140,140,140,140,140,140,
  0,180,180,180,180,180,150,150,150,150,150,150,150,150,150
]);

% Horario original de llegada (Timetable)
% Construido como suma acumulada de T para que tau_bi sea consistente
% (Valores escalados ×10)
tau_bi = array2d(1..10, 1..15, [
  0,100,200,320,440,560,660,760,860,980,1100,1200,1300,1400,1520,
  0,100,200,320,440,560,660,760,860,980,1100,1200,1300,1400,1520,
  0,150,300,450,600,750,900,1050,1200,1350,1500,1650,1800,1950,2100,
  0,150,300,450,600,750,900,1050,1200,1350,1500,1650,1800,1950,2100,
  0,200,400,600,800,950,1100,1250,1400,1520,1640,1760,1880,2000,2120,
  0,200,400,600,800,950,1100,1250,1400,1520,1640,1760,1880,2000,2120,
  0,160,320,480,640,800,960,1120,1280,1440,1600,1760,1920,2080,2240,
  0,160,320,480,640,800,960,1120,1280,1440,1600,1760,1920,2080,2240,
  0,140,280,420,560,700,840,980,1120,1260,1400,1540,1680,1820,1960,
  0,180,360,540,720,900,1050,1200,1350,1500,1650,1800,1950,2100,2250
]);